NAME : pr136.112468.tour
COMMENT : Cost = 37661_112468
COMMENT : Found by LKH [Keld Helsgaun] Thu Nov 16 14:48:51 2017
TYPE : TOUR
DIMENSION : 138
TOUR_SECTION
1
7
8
16
20
32
49
43
60
59
55
48
44
36
45
46
57
58
67
70
79
80
90
81
69
68
56
47
35
34
22
13
4
12
23
24
33
25
21
14
11
3
10
9
26
15
2
137
6
5
18
52
64
63
65
72
74
73
85
98
97
99
106
108
107
119
132
131
136
130
120
118
109
110
129
135
121
117
105
100
95
96
86
84
75
76
62
53
51
40
39
30
29
138
17
19
31
38
41
42
61
71
83
87
122
111
128
127
134
126
123
116
112
104
113
114
125
133
124
115
103
102
91
92
101
93
89
82
78
77
94
88
66
54
50
37
27
28
-1
EOF
